p cnf 50 1700 
1 37 -21 0
1 31 43 0
1 -16 -12 0
1 1 -23 0
1 40 -49 0
1 7 35 0
1 -31 23 0
1 36 37 0
1 8 -31 0
1 24 -40 0
1 -2 5 0
1 -27 48 0
1 -47 22 0
1 7 -13 0
1 36 33 0
1 -20 -21 0
1 1 13 0
1 2 26 0
1 30 1 0
1 49 -3 0
1 -25 -21 0
1 34 5 0
1 -37 25 0
1 -45 -33 0
1 45 -49 0
1 -24 32 0
1 33 -4 0
1 6 -32 0
1 2 -23 0
1 27 28 0
1 3 -43 0
1 -26 1 0
1 50 11 0
1 -43 16 0
1 20 35 0
1 17 30 0
1 2 -16 0
1 -44 -7 0
1 -50 10 0
1 -11 34 0
1 -45 -11 0
1 26 -9 0
1 44 17 0
1 -47 -25 0
1 -41 -31 0
1 -37 -17 0
1 27 -22 0
1 -5 46 0
1 -29 -37 0
1 -48 36 0
1 6 -39 0
1 17 -9 0
1 -35 5 0
1 -34 20 0
1 31 -15 0
1 -10 -9 0
1 45 -40 0
1 26 -4 0
1 42 18 0
1 27 33 0
1 38 39 0
1 -9 -41 0
1 5 36 0
1 45 -23 0
1 -13 -27 0
1 31 38 0
1 -6 -32 0
1 -15 36 0
1 24 -5 0
1 46 -50 0
1 36 -44 0
1 17 -18 0
1 45 50 0
1 -38 -36 0
1 17 -27 0
1 -12 -16 0
1 21 6 0
1 6 -39 0
1 32 -31 0
1 -48 -38 0
1 38 44 0
1 30 -12 0
1 -38 -41 0
1 -7 -10 0
1 -16 2 0
1 40 9 0
1 39 -31 0
1 -18 48 0
1 -41 44 0
1 6 -47 0
1 -38 -44 0
1 4 27 0
1 -29 14 0
1 -23 50 0
1 -30 -11 0
1 8 -25 0
1 18 33 0
1 29 35 0
1 28 -9 0
1 -35 32 0
1 -45 38 0
1 -38 22 0
1 33 -25 0
1 -50 17 0
1 -49 -6 0
1 -40 7 0
1 -15 -4 0
1 35 -48 0
1 -36 45 0
1 -17 -25 0
1 -49 -4 0
1 20 26 0
1 -31 6 0
1 -12 -38 0
1 -42 -37 0
1 35 39 0
1 -33 -2 0
1 -26 32 0
1 35 36 0
1 11 -38 0
1 43 17 0
1 -5 -50 0
1 37 6 0
1 -44 -26 0
1 -27 33 0
1 -14 -24 0
1 9 49 0
1 37 -25 0
1 -41 -23 0
1 -22 14 0
1 -20 11 0
1 -36 18 0
1 1 16 0
1 40 -41 0
1 39 -16 0
1 40 -29 0
1 -1 38 0
1 -2 16 0
1 -27 9 0
1 27 -24 0
1 -40 -39 0
1 -29 4 0
1 -19 45 0
1 -23 47 0
1 -35 -15 0
1 31 26 0
1 35 41 0
1 -14 43 0
1 -31 27 0
1 -30 -9 0
1 4 -21 0
1 -18 47 0
1 -12 -45 0
1 -21 44 0
1 34 -16 0
1 9 -2 0
1 -29 33 0
1 42 -26 0
1 47 14 0
1 10 20 0
1 15 -2 0
1 -45 -10 0
1 26 -6 0
1 7 -26 0
1 -9 -22 0
1 -48 -49 0
1 13 16 0
1 -35 -22 0
1 -23 5 0
1 -15 -25 0
1 30 -20 0
1 46 47 0
1 19 13 0
1 12 49 0
1 -14 -16 0
1 -37 38 0
1 -43 33 0
1 -7 -22 0
1 42 -22 0
1 -19 -42 0
1 5 45 0
1 -44 12 0
1 27 35 0
1 23 3 0
1 35 -50 0
1 -22 20 0
1 42 49 0
1 -41 -42 0
1 37 -50 0
1 -11 -1 0
1 -36 42 0
1 44 -23 0
1 23 -44 0
1 14 48 0
1 47 -7 0
1 -49 -11 0
1 10 44 0
1 44 -1 0
1 -42 -7 0
1 30 8 0
1 -2 35 0
1 32 -1 0
1 8 33 0
1 -44 47 0
1 40 -7 0
1 7 -30 0
1 -36 49 0
1 7 49 0
1 34 11 0
1 -12 42 0
1 -25 8 0
1 4 -18 0
1 -24 -44 0
1 -23 39 0
1 37 -14 0
1 12 -39 0
1 50 24 0
1 -16 -3 0
1 10 6 0
1 24 -31 0
1 -25 -34 0
1 23 7 0
1 20 -29 0
1 -18 4 0
1 -28 -37 0
1 -39 -8 0
1 13 -43 0
1 -24 -20 0
1 -3 -10 0
1 -17 -1 0
1 29 -38 0
1 41 44 0
1 30 42 0
1 49 45 0
1 -38 29 0
1 48 31 0
1 -41 3 0
1 -3 -10 0
1 -47 -10 0
1 3 -42 0
1 -33 -17 0
1 -12 -17 0
1 45 -41 0
1 -22 19 0
1 22 18 0
1 28 11 0
1 20 35 0
1 26 18 0
1 -34 -4 0
1 -20 34 0
1 25 -5 0
1 24 -50 0
1 18 -26 0
1 36 25 0
1 -9 -33 0
1 -1 -33 0
1 -36 34 0
1 18 -24 0
1 28 -38 0
1 -45 46 0
1 15 -41 0
1 -11 -12 0
1 -40 34 0
1 27 7 0
1 -13 -29 0
1 20 8 0
1 9 38 0
1 33 21 0
1 -26 -9 0
1 -8 -27 0
1 20 -47 0
1 4 28 0
1 -6 -33 0
1 -40 -11 0
1 49 -34 0
1 4 -22 0
1 31 -39 0
1 -15 -42 0
1 -39 -46 0
1 24 -34 0
1 16 9 0
1 20 38 0
1 -21 6 0
1 27 4 0
1 -43 18 0
1 -9 -23 0
1 -18 -24 0
1 8 49 0
1 -8 -25 0
1 -12 -32 0
1 38 44 0
1 48 -8 0
1 -26 -16 0
1 39 32 0
1 21 47 0
1 -18 -43 0
1 21 4 0
1 -48 -36 0
1 -42 -4 0
1 26 -30 0
1 -27 9 0
1 -40 36 0
1 -33 -47 0
1 -39 7 0
1 10 46 0
1 -32 1 0
1 5 -39 0
1 18 -46 0
1 4 -2 0
1 38 37 0
1 33 35 0
1 -42 12 0
1 7 -41 0
1 42 -9 0
1 -47 32 0
1 28 -49 0
1 -50 -17 0
1 3 -30 0
1 15 27 0
1 38 -35 0
1 -26 18 0
1 26 43 0
1 -25 40 0
1 -39 -43 0
1 10 9 0
1 -39 32 0
1 8 -3 0
1 -37 18 0
1 -35 21 0
1 -13 -43 0
1 -33 17 0
1 10 23 0
1 -31 34 0
1 15 29 0
1 31 33 0
1 -1 -6 0
1 -26 -9 0
1 2 -27 0
1 44 14 0
1 36 14 0
1 -47 4 0
1 -32 9 0
1 -41 -1 0
1 -6 -9 0
1 18 21 0
1 47 -45 0
1 -8 43 0
1 15 11 0
1 -46 30 0
1 -13 11 0
1 41 -36 0
1 12 -50 0
1 -20 36 0
1 39 -20 0
1 13 -15 0
1 -25 35 0
1 14 -44 0
1 -5 -20 0
1 -6 9 0
1 -9 -10 0
1 -46 -29 0
1 -49 12 0
1 -26 -48 0
1 -32 21 0
1 -45 22 0
1 11 23 0
1 -16 -37 0
1 36 6 0
1 46 6 0
1 -36 -24 0
1 11 -33 0
1 3 -9 0
1 31 -45 0
1 17 -31 0
1 17 39 0
1 44 -30 0
1 -35 31 0
1 4 28 0
1 10 16 0
1 25 21 0
1 -15 -21 0
1 1 7 0
1 45 -23 0
1 -2 -38 0
1 18 22 0
1 -50 9 0
1 24 -39 0
1 10 32 0
1 2 50 0
1 7 20 0
1 -43 -40 0
1 -27 -16 0
1 38 -37 0
1 -45 49 0
1 37 -19 0
1 50 21 0
1 20 -26 0
1 -45 -24 0
1 -13 -16 0
1 -32 12 0
1 -48 -6 0
1 -3 11 0
1 28 -29 0
1 49 22 0
1 26 -44 0
1 21 -5 0
1 36 -1 0
1 -33 -36 0
1 -42 -38 0
1 48 -8 0
1 36 -35 0
1 7 -41 0
1 -34 25 0
1 -30 42 0
1 42 8 0
1 43 -9 0
1 -46 -31 0
1 38 42 0
1 27 -42 0
1 32 15 0
1 40 47 0
1 -38 -10 0
1 17 49 0
1 -7 10 0
1 -41 -22 0
1 13 -14 0
1 5 -10 0
1 25 39 0
1 -35 21 0
1 31 -19 0
1 17 8 0
1 18 1 0
1 -23 -20 0
1 34 -38 0
1 48 -24 0
1 26 -37 0
1 -20 -43 0
1 46 25 0
1 32 -28 0
1 2 28 0
1 14 40 0
1 -14 43 0
1 -16 -22 0
1 -8 -18 0
1 11 15 0
1 39 20 0
1 48 -30 0
1 7 -21 0
1 26 22 0
1 -21 34 0
1 -25 50 0
1 -27 -47 0
1 3 15 0
1 -35 -9 0
1 -8 -47 0
1 18 -39 0
1 48 21 0
1 -5 -2 0
1 -2 -22 0
1 18 17 0
1 -32 31 0
1 40 -21 0
1 -18 -47 0
1 36 -29 0
1 50 35 0
1 -37 33 0
1 -23 -15 0
1 34 46 0
1 26 -39 0
1 43 -50 0
1 25 49 0
1 23 7 0
1 -8 -7 0
1 39 31 0
1 45 -28 0
1 -23 -24 0
1 -12 46 0
1 -45 9 0
1 7 -17 0
1 -23 -27 0
1 34 30 0
1 -11 27 0
1 -5 -36 0
1 -9 26 0
1 21 -25 0
1 -17 -35 0
1 8 -15 0
1 2 -36 0
1 -10 -40 0
1 -24 47 0
1 31 19 0
1 -44 39 0
1 -13 -42 0
1 27 -29 0
1 44 -19 0
1 -4 36 0
1 -26 -18 0
1 15 -41 0
1 -9 27 0
1 15 -27 0
1 18 -10 0
1 -38 -20 0
1 -38 -47 0
1 33 2 0
1 19 -4 0
1 -44 16 0
1 42 27 0
1 -3 21 0
1 30 40 0
1 -10 -43 0
1 -39 23 0
1 -25 -42 0
1 -45 -37 0
1 -3 -41 0
1 -45 50 0
1 -34 3 0
1 -17 13 0
1 -10 -29 0
1 16 20 0
1 -50 -1 0
1 -40 -39 0
1 33 -8 0
1 -40 -15 0
1 -38 10 0
1 -19 7 0
1 -40 -14 0
1 -20 35 0
1 21 22 0
1 -50 40 0
1 -15 24 0
1 -39 -40 0
1 -49 35 0
1 -42 -44 0
1 -7 -19 0
1 -4 24 0
1 -46 -7 0
1 46 25 0
1 -49 -14 0
1 -2 -13 0
1 -9 3 0
1 36 10 0
1 37 36 0
1 -32 6 0
1 -1 34 0
1 44 39 0
1 25 -40 0
1 -26 -46 0
1 25 -49 0
1 8 -17 0
1 24 32 0
1 38 -13 0
1 -47 -12 0
1 -50 43 0
1 32 7 0
1 -3 -8 0
1 7 48 0
1 14 -31 0
1 -12 -31 0
1 -43 -15 0
1 -26 28 0
1 -21 26 0
1 32 -12 0
1 20 -44 0
1 -41 21 0
1 -1 45 0
1 25 36 0
1 50 48 0
1 -26 -34 0
1 -9 -50 0
1 11 -6 0
1 50 -35 0
1 -5 45 0
1 40 38 0
1 -23 29 0
1 -26 37 0
1 -21 -48 0
1 47 44 0
1 -50 -45 0
1 -29 -43 0
1 -38 -34 0
1 -21 -5 0
1 33 22 0
1 9 -13 0
1 10 7 0
1 1 -29 0
1 -23 50 0
1 -43 -38 0
1 -21 -6 0
1 47 35 0
1 -50 18 0
1 27 -5 0
1 -14 -29 0
1 42 -34 0
1 -32 14 0
1 -48 13 0
1 -19 32 0
1 -17 2 0
1 -19 -9 0
1 -13 -2 0
1 30 13 0
1 47 -31 0
1 -45 -46 0
1 9 -38 0
1 -20 -3 0
1 5 24 0
1 33 -31 0
1 32 49 0
1 -11 39 0
1 -20 44 0
1 39 -33 0
1 21 -15 0
1 -18 16 0
1 -40 27 0
1 8 -14 0
1 -12 39 0
1 -27 -32 0
1 26 15 0
1 48 15 0
1 29 -35 0
1 1 -33 0
1 10 12 0
1 26 -28 0
1 16 -5 0
1 -37 39 0
1 -4 47 0
1 11 -37 0
1 -22 26 0
1 8 3 0
1 -14 -23 0
1 -1 39 0
1 43 -36 0
1 -25 -46 0
1 -43 17 0
1 -4 -46 0
1 -22 -28 0
1 -30 -9 0
1 -31 34 0
1 10 -47 0
1 5 41 0
1 -32 -48 0
1 26 47 0
1 -40 27 0
1 -24 -23 0
1 19 -41 0
1 24 -43 0
1 -39 -29 0
1 -20 49 0
1 -46 37 0
1 -34 1 0
1 -27 36 0
1 -8 -37 0
1 28 44 0
1 -36 42 0
1 21 -13 0
1 11 -41 0
1 -40 -28 0
1 20 3 0
1 43 -17 0
1 48 -38 0
1 -13 7 0
1 41 2 0
1 19 -13 0
1 -4 -21 0
1 -48 7 0
1 9 48 0
1 -14 35 0
1 23 -35 0
1 -42 -31 0
1 -32 12 0
1 -25 -50 0
1 20 6 0
1 -12 2 0
1 49 8 0
1 43 1 0
1 -35 -27 0
1 7 -38 0
1 -50 45 0
1 44 19 0
1 -24 -22 0
1 24 17 0
1 -25 27 0
1 -27 9 0
1 -36 -32 0
1 -20 47 0
1 -41 -20 0
1 -38 46 0
1 -18 -29 0
1 46 3 0
1 -30 48 0
1 6 -19 0
1 -1 7 0
1 -4 -14 0
1 -33 34 0
1 -29 -26 0
1 -5 -29 0
1 32 50 0
1 47 6 0
1 -25 36 0
1 -43 -26 0
1 -40 35 0
1 -18 -43 0
1 -25 43 0
1 -29 -48 0
1 17 46 0
1 -13 -26 0
1 -19 -22 0
1 -16 36 0
1 25 -7 0
1 -50 14 0
1 -7 -32 0
1 29 -11 0
1 6 38 0
1 14 -15 0
1 -36 8 0
1 43 11 0
1 17 20 0
1 -34 -44 0
1 25 17 0
1 -28 -38 0
1 25 -17 0
1 31 19 0
1 27 46 0
1 -6 21 0
1 -40 46 0
1 39 29 0
1 45 38 0
1 25 -16 0
1 -32 8 0
1 -27 7 0
1 3 48 0
1 -18 9 0
1 -4 -18 0
1 47 -44 0
1 31 22 0
1 37 19 0
1 -27 43 0
1 50 12 0
1 9 -29 0
1 -37 -39 0
1 -7 15 0
1 -8 -38 0
1 -9 -7 0
1 26 49 0
1 42 -46 0
1 -7 12 0
1 -40 -1 0
1 39 -26 0
1 -41 -50 0
1 -38 -40 0
1 -46 30 0
1 29 5 0
1 1 28 0
1 39 -2 0
1 2 -14 0
1 -40 -23 0
1 -22 31 0
1 21 15 0
1 -44 46 0
1 -1 10 0
1 38 -2 0
1 3 30 0
1 -44 -10 0
1 32 28 0
1 9 -42 0
1 -6 -18 0
1 14 33 0
1 42 -14 0
1 15 23 0
1 2 -9 0
1 -19 15 0
1 43 42 0
1 -34 -17 0
1 -35 -25 0
1 7 -9 0
1 -22 -27 0
1 49 32 0
1 -41 26 0
1 41 -24 0
1 -16 -13 0
1 -29 13 0
1 38 -26 0
1 -35 23 0
1 -49 -19 0
1 -50 -47 0
1 -23 43 0
1 -17 -8 0
1 -20 -29 0
1 41 -20 0
1 46 -23 0
1 -45 -15 0
1 -33 -30 0
1 27 -38 0
1 30 -22 0
1 -29 -6 0
1 -34 11 0
1 30 8 0
1 31 -26 0
1 40 41 0
1 20 -9 0
1 -47 -28 0
1 49 -5 0
1 10 -2 0
1 12 -22 0
1 30 22 0
1 -47 -21 0
1 11 -4 0
1 -13 12 0
1 -40 -20 0
1 24 -8 0
1 -9 40 0
1 12 -47 0
1 18 29 0
1 -49 36 0
1 -39 8 0
1 20 16 0
1 -36 45 0
1 -2 12 0
1 -2 21 0
1 17 -44 0
1 -22 4 0
1 -39 -48 0
1 -6 20 0
1 -36 38 0
1 -32 -30 0
1 -41 -23 0
1 43 26 0
1 -19 -9 0
1 13 41 0
1 -39 -40 0
1 10 -7 0
1 45 -1 0
1 30 45 0
1 17 5 0
1 30 -19 0
1 -28 -11 0
1 -2 -49 0
1 -39 -19 0
1 -26 1 0
1 -1 -8 0
1 3 6 0
1 -10 -15 0
1 -34 47 0
1 7 27 0
1 -26 41 0
1 10 -30 0
1 30 -4 0
1 12 50 0
1 -5 13 0
1 28 11 0
1 7 41 0
1 17 -22 0
1 13 19 0
1 49 -17 0
1 20 -11 0
1 -10 20 0
1 -33 27 0
1 38 -30 0
1 21 -42 0
1 -14 -30 0
1 -48 -35 0
1 1 5 0
1 16 -33 0
1 -2 -47 0
1 -23 17 0
1 47 14 0
1 6 12 0
1 -41 -33 0
1 -18 43 0
1 -48 9 0
1 -41 -38 0
1 -27 10 0
1 -20 39 0
1 -6 39 0
1 -7 27 0
1 -15 -9 0
1 27 41 0
1 4 -48 0
1 40 43 0
1 -3 11 0
1 -50 18 0
1 6 31 0
1 7 5 0
1 14 -8 0
1 49 28 0
1 -25 13 0
1 -6 11 0
1 -22 14 0
1 -32 -26 0
1 -6 39 0
1 -44 14 0
1 -21 5 0
1 32 4 0
1 17 14 0
1 -25 -48 0
1 12 -9 0
1 -34 -41 0
1 30 -3 0
1 37 -30 0
1 28 -33 0
1 -4 29 0
1 -48 -19 0
1 49 37 0
1 -2 -49 0
1 29 31 0
1 -34 45 0
1 24 14 0
1 -46 -34 0
1 12 30 0
1 48 -7 0
1 43 -10 0
1 -8 -45 0
1 -25 10 0
1 -4 -44 0
1 -7 39 0
1 22 -11 0
1 -40 -17 0
1 -24 44 0
1 3 37 0
1 -31 49 0
1 9 40 0
1 -34 -41 0
1 -29 19 0
1 -30 43 0
1 9 -24 0
1 -17 42 0
1 -28 10 0
1 8 28 0
1 -18 28 0
1 -19 -40 0
1 32 48 0
1 -31 37 0
1 44 -15 0
1 13 41 0
1 -21 -22 0
1 36 46 0
1 -24 -16 0
1 -6 -30 0
1 28 46 0
1 32 42 0
1 7 33 0
1 -23 -22 0
1 -43 -20 0
1 -15 -7 0
1 -23 -24 0
1 4 -9 0
1 -4 -24 0
1 16 1 0
1 -33 18 0
1 -40 -31 0
1 1 41 0
1 48 2 0
1 -25 -33 0
1 41 -12 0
1 -35 49 0
1 49 -37 0
1 -5 -13 0
1 -43 -36 0
1 26 35 0
1 -36 11 0
1 -43 -41 0
1 -3 -49 0
1 -47 -5 0
1 -42 -10 0
1 -22 13 0
1 48 16 0
1 -1 -15 0
1 -25 40 0
1 31 -37 0
1 35 -28 0
1 -33 7 0
1 16 -3 0
1 16 11 0
1 -27 -8 0
1 22 -34 0
1 24 10 0
1 -46 -14 0
1 41 6 0
1 -13 -38 0
1 41 18 0
1 29 16 0
1 -24 -7 0
1 -40 45 0
1 4 -5 0
1 -18 4 0
1 -10 41 0
1 28 30 0
1 48 -16 0
1 -31 44 0
1 -50 -13 0
1 8 40 0
1 44 20 0
1 24 -39 0
1 30 3 0
1 32 -6 0
1 21 49 0
1 42 -37 0
1 -50 4 0
1 44 -33 0
1 -2 28 0
1 17 -20 0
1 22 13 0
1 -18 -27 0
1 -26 38 0
1 25 45 0
1 -48 -39 0
1 -21 48 0
1 -25 -28 0
1 -47 5 0
1 18 -39 0
1 16 -5 0
1 42 13 0
1 -8 17 0
1 -6 -20 0
1 -18 -25 0
1 -3 -45 0
1 50 20 0
1 9 39 0
1 43 -27 0
1 40 -24 0
1 -41 2 0
1 -48 22 0
1 20 25 0
1 23 -14 0
1 -32 28 0
1 21 11 0
1 50 -46 0
1 -37 -46 0
1 6 -45 0
1 17 -23 0
1 38 6 0
1 -30 3 0
1 31 16 0
1 26 -39 0
1 34 10 0
1 5 18 0
1 -13 -7 0
1 29 46 0
1 2 -33 0
1 -36 49 0
1 15 -9 0
1 47 -21 0
1 30 -37 0
1 -5 4 0
1 -10 -38 0
1 34 -15 0
1 48 -22 0
1 -20 -7 0
1 16 14 0
1 -34 41 0
1 -28 -44 0
1 -48 43 0
1 -31 46 0
1 -11 49 0
1 -20 -15 0
1 22 -38 0
1 -1 -50 0
1 -40 42 0
1 36 -46 0
1 -39 1 0
1 -46 34 0
1 33 -13 0
1 3 -43 0
1 -17 4 0
1 3 -25 0
1 -23 24 0
1 24 12 0
1 1 -27 0
1 11 -25 0
1 -38 -19 0
1 -11 -7 0
1 -11 21 0
1 46 48 0
1 -21 -36 0
1 47 -43 0
1 -20 -38 0
1 13 47 0
1 -16 -11 0
1 17 -21 0
1 -42 -46 0
1 44 46 0
1 32 -40 0
1 33 27 0
1 -15 -6 0
1 -3 5 0
1 -15 -18 0
1 39 -47 0
1 42 -49 0
1 -44 -21 0
1 11 -8 0
1 -35 -28 0
1 -34 -29 0
1 33 -3 0
1 -21 48 0
1 -44 -38 0
1 36 -6 0
1 26 -20 0
1 -27 7 0
1 35 27 0
1 5 -35 0
1 -37 9 0
1 6 -13 0
1 -50 -5 0
1 11 -6 0
1 26 18 0
1 25 3 0
1 -29 -21 0
1 6 -33 0
1 -41 -4 0
1 16 46 0
1 -31 -49 0
1 12 -17 0
1 39 -14 0
1 26 -13 0
1 41 3 0
1 22 44 0
1 -43 9 0
1 -5 28 0
1 9 22 0
1 34 -45 0
1 48 4 0
1 23 20 0
1 -21 23 0
1 36 -22 0
1 -12 16 0
1 44 34 0
1 -6 -34 0
1 -28 -38 0
1 -41 10 0
1 -29 -36 0
1 9 -36 0
1 -7 22 0
1 -37 -36 0
1 -20 2 0
1 36 6 0
1 -44 -50 0
1 -10 -24 0
1 -10 37 0
1 22 -3 0
1 -24 1 0
1 -37 30 0
1 -31 20 0
1 -26 43 0
1 43 18 0
1 -42 1 0
1 38 28 0
1 -30 33 0
1 33 13 0
1 -2 26 0
1 -5 -9 0
1 -38 15 0
1 -18 42 0
1 31 48 0
1 -17 -14 0
1 -1 -40 0
1 2 -44 0
1 -36 -25 0
1 -21 -30 0
1 20 37 0
1 -33 -22 0
1 -28 -50 0
1 -38 -46 0
1 -28 -25 0
1 19 32 0
1 -7 -38 0
1 18 -30 0
1 -17 -49 0
1 41 -29 0
1 -26 7 0
1 -49 4 0
1 -33 28 0
1 34 46 0
1 -44 48 0
1 -10 -26 0
1 24 40 0
1 18 -30 0
1 37 -31 0
1 35 13 0
1 -40 49 0
1 -44 -1 0
1 48 33 0
1 -9 -2 0
1 -41 48 0
1 27 48 0
1 -29 16 0
1 -28 5 0
1 -4 -10 0
1 -10 36 0
1 19 -46 0
1 47 -48 0
1 -45 3 0
1 -1 -47 0
1 -12 -31 0
1 35 -21 0
1 -30 -47 0
1 -33 20 0
1 -15 10 0
1 -8 35 0
1 37 -44 0
1 40 6 0
1 -36 7 0
1 27 46 0
1 -42 44 0
1 13 -40 0
1 -50 2 0
1 36 38 0
1 31 30 0
1 35 24 0
1 -31 9 0
1 4 -50 0
1 43 7 0
1 -47 -45 0
1 46 -22 0
1 9 -10 0
1 40 11 0
1 -35 28 0
1 -36 -22 0
1 -34 -35 0
1 -4 -33 0
1 -16 -32 0
1 -34 -24 0
1 -27 -34 0
1 42 8 0
1 3 -37 0
1 8 -44 0
1 -29 -2 0
1 -34 -17 0
1 -48 -24 0
1 48 32 0
1 15 7 0
1 -14 34 0
1 20 -30 0
1 24 28 0
1 -29 50 0
1 17 14 0
1 -37 -48 0
1 30 -18 0
1 24 -19 0
1 3 26 0
1 -6 -7 0
1 -34 19 0
1 -19 -15 0
1 -29 38 0
1 -36 44 0
1 11 -7 0
1 26 -9 0
1 -34 -24 0
1 31 50 0
1 -19 -50 0
1 15 -2 0
1 40 22 0
1 -15 7 0
1 13 -47 0
1 5 -31 0
1 -5 -16 0
1 -15 -48 0
1 47 25 0
1 27 43 0
1 -14 -11 0
1 17 -29 0
1 26 -12 0
1 43 -34 0
1 -50 48 0
1 -45 -30 0
1 5 -18 0
1 -11 6 0
1 16 -38 0
1 17 -5 0
1 17 29 0
1 13 42 0
1 -39 -36 0
1 16 25 0
1 42 28 0
1 -33 -48 0
1 -36 28 0
1 -32 -41 0
1 19 -16 0
1 -7 -12 0
1 -48 21 0
1 -45 -4 0
1 -31 33 0
1 30 14 0
1 42 40 0
1 30 -10 0
1 -25 -28 0
1 -40 -24 0
1 -44 -6 0
1 9 -30 0
1 13 -12 0
1 26 13 0
1 -2 -24 0
1 -34 12 0
1 -40 -10 0
1 33 -17 0
1 22 -13 0
1 43 37 0
1 -48 23 0
1 -36 -5 0
1 28 29 0
1 41 -48 0
1 8 -9 0
1 25 -23 0
1 -36 -29 0
1 -15 47 0
1 -20 31 0
1 -35 23 0
1 2 -10 0
1 8 43 0
1 1 -31 0
1 4 -20 0
1 49 -18 0
1 2 -25 0
1 9 -19 0
1 -11 29 0
1 -2 -26 0
1 -48 -43 0
1 -47 21 0
1 43 -21 0
1 -39 -29 0
1 4 1 0
1 -20 -38 0
1 -16 27 0
1 2 -27 0
1 -20 5 0
1 -25 9 0
1 30 48 0
1 27 -45 0
1 -45 29 0
1 -17 -35 0
1 -11 44 0
1 20 -10 0
1 14 -38 0
1 46 38 0
1 -36 15 0
1 -9 50 0
1 29 -32 0
1 -16 -12 0
1 -5 27 0
1 36 -49 0
1 -37 -18 0
1 6 -45 0
1 9 50 0
1 50 -43 0
1 25 -38 0
1 49 1 0
1 -27 5 0
1 4 -41 0
1 9 49 0
1 43 28 0
1 28 -6 0
1 49 38 0
1 26 28 0
1 -28 30 0
1 34 -5 0
1 -46 26 0
1 25 48 0
1 25 21 0
1 -27 36 0
1 -24 -32 0
1 9 -11 0
1 -40 50 0
1 5 -10 0
1 36 -4 0
1 21 -23 0
1 41 -10 0
1 -38 44 0
1 -41 49 0
1 -22 15 0
1 -5 13 0
1 -22 26 0
1 -30 45 0
1 -18 47 0
1 -6 -11 0
1 5 -34 0
1 -32 41 0
1 5 36 0
1 49 50 0
1 -26 8 0
1 3 17 0
1 -14 48 0
1 9 11 0
1 44 -25 0
1 -15 3 0
1 -39 -2 0
1 1 -47 0
1 -4 34 0
1 -1 36 0
1 -33 -4 0
1 14 47 0
1 -21 -11 0
1 13 11 0
1 -12 34 0
1 -30 -45 0
1 -29 -19 0
1 -4 -16 0
1 -19 -27 0
1 -23 -31 0
1 -41 23 0
1 34 -35 0
1 18 -43 0
1 -37 46 0
1 -15 21 0
1 36 37 0
1 -14 -33 0
1 -13 28 0
1 1 -9 0
1 -43 12 0
1 5 -37 0
1 33 -39 0
1 9 -50 0
1 -37 -21 0
1 -3 37 0
1 15 16 0
1 -24 26 0
1 -38 -28 0
1 -14 -36 0
1 -24 -39 0
1 -38 9 0
1 29 -27 0
1 -13 -10 0
1 -25 -16 0
1 42 -40 0
1 17 -43 0
1 -28 2 0
1 -40 -20 0
1 28 11 0
1 -37 -26 0
1 35 26 0
1 -17 9 0
1 24 20 0
1 -39 -3 0
1 -29 -46 0
1 -29 -9 0
1 10 -33 0
1 21 24 0
1 50 30 0
1 39 47 0
1 -16 46 0
1 -48 -23 0
1 18 -27 0
1 -35 -50 0
1 -33 10 0
1 34 -49 0
1 29 14 0
1 -10 -24 0
1 -19 7 0
1 -29 -26 0
1 -3 -16 0
1 -16 -28 0
1 37 9 0
1 7 -9 0
1 23 -5 0
1 28 -31 0
1 37 39 0
1 15 5 0
1 21 -4 0
1 -31 32 0
1 -41 -35 0
1 -44 43 0
1 -47 35 0
1 15 6 0
1 44 33 0
1 37 28 0
1 -32 26 0
1 -8 -28 0
1 -13 19 0
1 11 28 0
1 -12 -20 0
1 -25 3 0
1 35 44 0
1 -22 48 0
1 24 -23 0
1 -50 47 0
1 15 -24 0
1 -1 40 0
1 -9 -16 0
1 -18 16 0
1 9 -25 0
1 -23 -4 0
1 -26 -49 0
1 -46 5 0
1 -29 -6 0
1 -45 20 0
1 -35 30 0
1 45 35 0
1 -10 -28 0
1 -31 17 0
1 -16 5 0
1 10 -19 0
1 25 7 0
1 26 8 0
1 37 -6 0
1 -41 -15 0
1 -43 19 0
1 -35 10 0
1 15 11 0
1 30 31 0
1 37 28 0
1 36 44 0
1 49 -33 0
1 -47 -39 0
1 8 -21 0
1 -31 -42 0
1 -3 -20 0
1 31 36 0
1 -8 32 0
1 -3 -17 0
1 -20 40 0
1 29 -22 0
1 -34 -9 0
1 -1 26 0
1 -45 9 0
1 -45 7 0
1 39 -28 0
1 -44 4 0
1 43 9 0
1 30 39 0
1 -47 -1 0
1 26 16 0
1 -25 37 0
1 44 -29 0
1 6 -25 0
1 29 49 0
1 -7 -35 0
1 23 13 0
1 14 -40 0
1 6 -18 0
1 -5 -49 0
1 -21 -29 0
1 2 -39 0
1 1 -45 0
1 37 -44 0
1 45 -28 0
1 -45 2 0
1 12 19 0
1 -18 -14 0
1 -43 -38 0
1 -26 -7 0
1 1 -50 0
1 -43 -21 0
1 49 -50 0
1 2 10 0
1 -28 -21 0
1 -34 -27 0
1 14 -15 0
1 21 12 0
1 12 28 0
1 -49 -47 0
1 -47 -12 0
1 21 -44 0
1 -14 -39 0
1 15 -25 0
1 39 42 0
1 -4 34 0
1 12 41 0
1 37 -10 0
1 -21 -46 0
1 -39 42 0
1 -30 -32 0
1 6 -22 0
1 14 40 0
1 -24 -35 0
1 -25 49 0
1 -8 -2 0
1 48 -26 0
1 -17 -10 0
1 -42 -38 0
1 -10 12 0
1 -2 -46 0
1 30 19 0
1 18 -6 0
1 7 10 0
1 -36 25 0
1 -35 -28 0
1 16 37 0
1 -48 -15 0
1 10 -35 0
1 -4 35 0
1 -41 -9 0
1 19 1 0
1 26 41 0
1 -19 -2 0
1 38 -8 0
1 -23 -4 0
1 39 -9 0
1 44 -14 0
1 -23 -10 0
1 -11 -32 0
1 -22 -49 0
1 50 -30 0
1 38 31 0
1 -34 7 0
1 16 13 0
1 -27 -28 0
1 -38 -24 0
1 -5 -34 0
1 32 -29 0
1 9 -39 0
1 20 42 0
1 49 26 0
1 -40 24 0
1 18 -38 0
1 -27 4 0
1 -37 23 0
1 39 -24 0
1 -43 -21 0
1 -27 -50 0
1 -25 47 0
1 -20 -26 0
1 -14 -38 0
1 -41 -25 0
1 -47 -42 0
1 16 18 0
1 -38 9 0
1 -8 -24 0
1 -20 -28 0
1 -3 30 0
1 17 5 0
1 -29 6 0
1 48 29 0
1 46 -22 0
1 -31 -12 0
1 35 38 0
1 -15 18 0
1 -47 20 0
1 24 39 0
1 -45 -7 0
1 36 -37 0
1 8 -25 0
1 -37 12 0
1 -49 47 0
1 -14 19 0
1 38 14 0
1 3 -47 0
1 -4 -39 0
1 25 -44 0
1 19 34 0
1 -46 -47 0
1 43 2 0
1 20 39 0
1 2 41 0
1 37 -30 0
1 -19 -41 0
1 -34 49 0
1 32 -47 0
1 43 -33 0
1 -34 29 0
1 17 8 0
1 49 -27 0
1 -7 25 0
1 15 -4 0
1 -2 -45 0
1 41 -6 0
1 39 32 0
1 -11 -10 0
1 -17 35 0
1 -12 19 0
1 -44 25 0
1 29 -10 0
1 5 -6 0
1 -12 -24 0
1 6 47 0
1 -6 47 0
1 -32 -39 0
1 8 36 0
1 11 -2 0
1 12 15 0
1 21 -33 0
1 -7 39 0
1 -35 -4 0
1 1 -21 0
1 10 48 0
1 -34 -18 0
1 -27 -34 0
1 3 -13 0
1 -23 43 0
1 -24 -3 0
1 -30 35 0
1 47 -10 0
1 -34 27 0
1 45 22 0
1 5 50 0
1 -13 -23 0
1 -16 -32 0
1 34 42 0
1 26 45 0
1 4 -23 0
1 50 -43 0
1 15 7 0
1 -7 26 0
1 49 18 0
1 50 -1 0
1 -42 21 0
1 -15 10 0
1 33 -5 0
1 48 8 0
1 -14 39 0
1 -14 8 0
1 -26 43 0
1 43 -30 0
1 50 4 0
%
0

